SCIP version 5.0.0 [precision: 8 byte] [memory: block] [mode: optimized] [LP solver: NONE] [GitHash: 3bbd232]
Copyright (C) 2002-2017 Konrad-Zuse-Zentrum fuer Informationstechnik Berlin (ZIB)

External codes: 
  Readline EditLine w  GNU library for command line editing (gnu.org/s/readline)
  CppAD 20160000.1     Algorithmic Differentiation of C++ algorithms developed by B. Bell (www.coin-or.org/CppAD)
  ZLIB 1.2.5           General purpose compression library by J. Gailly and M. Adler (zlib.net)
  GMP 6.1.2            GNU Multiple Precision Arithmetic Library developed by T. Granlund (gmplib.org)

user parameter file <scip.set> not found - using default parameters

read problem <../../Split_data/output/spectf/8/3_sample_spectf.logreg>
============

File name	:	../../Split_data/output/spectf/8/3_sample_spectf.logreg
Problem name 	:	3_sample_spectf
Number of data	:	214
Number of var	:	44
The given data has linear independence

[dim=1] time: 0.007901
[dim=2] time: 0.020302
[dim=3] time: 0.030352
[dim=4] time: 0.037187
[dim=5] time: 0.043973
[dim=6] time: 0.054079
[dim=7] time: 0.065909
[dim=8] time: 0.076216
[dim=9] time: 0.083575
[dim=10] time: 0.095648
[dim=11] time: 0.101324
[dim=12] time: 0.106591
[dim=13] time: 0.111862
[dim=14] time: 0.117174
[dim=15] time: 0.122544
[dim=16] time: 0.127562
[dim=17] time: 0.132348
[dim=18] Time of forward = 0.136927sec.
AIC: 114.558
k: 17

[dim=44] time: 0.031904
[dim=43] time: 0.051937
[dim=42] time: 0.067658
[dim=41] time: 0.084892
[dim=40] time: 0.099618
[dim=39] time: 0.114263
[dim=38] time: 0.128453
[dim=37] time: 0.141621
[dim=36] time: 0.155556
[dim=35] time: 0.168762
[dim=34] time: 0.18
[dim=33] time: 0.189777
[dim=32] time: 0.198536
[dim=31] time: 0.21336
[dim=30] time: 0.221688
[dim=29] time: 0.233401
[dim=28] time: 0.24127
[dim=27] time: 0.24833
[dim=26] time: 0.25765
[dim=25] time: 0.266663
[dim=24] time: 0.274959
[dim=23] time: 0.282745
[dim=22] time: 0.288493
[dim=21] time: 0.295705
[dim=20] time: 0.301888
[dim=19] time: 0.306489
[dim=18] time: 0.312347
[dim=17] Time of backward = 0.316955sec.
AIC: 112.605
k: 18
